c FILE: 1-Insertions_5.col
c SOURCE: M. Caramia (caramia@iac.rm.cnr.it) and P. Dell'Olmo (paolo.dellolmo@uniroma1.it)
c DESCRIPTION: 1-Insertions graph of order 5%
p edge 202 1227
e 1 2
e 1 4
e 1 9
e 1 11
e 1 24
e 1 26
e 1 31
e 1 33
e 1 69
e 1 71
e 1 76
e 1 78
e 1 91
e 1 93
e 1 98
e 1 100
e 2 3
e 2 8
e 2 10
e 2 23
e 2 25
e 2 30
e 2 32
e 2 68
e 2 70
e 2 75
e 2 77
e 2 90
e 2 92
e 2 97
e 2 99
e 3 6
e 3 9
e 3 13
e 3 24
e 3 28
e 3 31
e 3 35
e 3 69
e 3 73
e 3 76
e 3 80
e 3 91
e 3 95
e 3 98
e 3 102
e 4 5
e 4 8
e 4 12
e 4 23
e 4 27
e 4 30
e 4 34
e 4 68
e 4 72
e 4 75
e 4 79
e 4 90
e 4 94
e 4 97
e 4 101
e 5 7
e 5 11
e 5 14
e 5 26
e 5 29
e 5 33
e 5 36
e 5 71
e 5 74
e 5 78
e 5 81
e 5 93
e 5 96
e 5 100
e 5 103
e 6 7
e 6 10
e 6 14
e 6 25
e 6 29
e 6 32
e 6 36
e 6 70
e 6 74
e 6 77
e 6 81
e 6 92
e 6 96
e 6 99
e 6 103
e 7 12
e 7 13
e 7 27
e 7 28
e 7 34
e 7 35
e 7 72
e 7 73
e 7 79
e 7 80
e 7 94
e 7 95
e 7 101
e 7 102
e 8 16
e 8 18
e 8 24
e 8 26
e 8 38
e 8 40
e 8 69
e 8 71
e 8 83
e 8 85
e 8 91
e 8 93
e 8 105
e 8 107
e 9 15
e 9 17
e 9 23
e 9 25
e 9 37
e 9 39
e 9 68
e 9 70
e 9 82
e 9 84
e 9 90
e 9 92
e 9 104
e 9 106
e 10 16
e 10 20
e 10 24
e 10 28
e 10 38
e 10 42
e 10 69
e 10 73
e 10 83
e 10 87
e 10 91
e 10 95
e 10 105
e 10 109
e 11 15
e 11 19
e 11 23
e 11 27
e 11 37
e 11 41
e 11 68
e 11 72
e 11 82
e 11 86
e 11 90
e 11 94
e 11 104
e 11 108
e 12 18
e 12 21
e 12 26
e 12 29
e 12 40
e 12 43
e 12 71
e 12 74
e 12 85
e 12 88
e 12 93
e 12 96
e 12 107
e 12 110
e 13 17
e 13 21
e 13 25
e 13 29
e 13 39
e 13 43
e 13 70
e 13 74
e 13 84
e 13 88
e 13 92
e 13 96
e 13 106
e 13 110
e 14 19
e 14 20
e 14 27
e 14 28
e 14 41
e 14 42
e 14 72
e 14 73
e 14 86
e 14 87
e 14 94
e 14 95
e 14 108
e 14 109
e 15 22
e 15 31
e 15 33
e 15 44
e 15 76
e 15 78
e 15 89
e 15 98
e 15 100
e 15 111
e 16 22
e 16 30
e 16 32
e 16 44
e 16 75
e 16 77
e 16 89
e 16 97
e 16 99
e 16 111
e 17 22
e 17 31
e 17 35
e 17 44
e 17 76
e 17 80
e 17 89
e 17 98
e 17 102
e 17 111
e 18 22
e 18 30
e 18 34
e 18 44
e 18 75
e 18 79
e 18 89
e 18 97
e 18 101
e 18 111
e 19 22
e 19 33
e 19 36
e 19 44
e 19 78
e 19 81
e 19 89
e 19 100
e 19 103
e 19 111
e 20 22
e 20 32
e 20 36
e 20 44
e 20 77
e 20 81
e 20 89
e 20 99
e 20 103
e 20 111
e 21 22
e 21 34
e 21 35
e 21 44
e 21 79
e 21 80
e 21 89
e 21 101
e 21 102
e 21 111
e 22 37
e 22 38
e 22 39
e 22 40
e 22 41
e 22 42
e 22 43
e 22 82
e 22 83
e 22 84
e 22 85
e 22 86
e 22 87
e 22 88
e 22 104
e 22 105
e 22 106
e 22 107
e 22 108
e 22 109
e 22 110
e 23 46
e 23 48
e 23 53
e 23 55
e 23 69
e 23 71
e 23 76
e 23 78
e 23 113
e 23 115
e 23 120
e 23 122
e 24 45
e 24 47
e 24 52
e 24 54
e 24 68
e 24 70
e 24 75
e 24 77
e 24 112
e 24 114
e 24 119
e 24 121
e 25 46
e 25 50
e 25 53
e 25 57
e 25 69
e 25 73
e 25 76
e 25 80
e 25 113
e 25 117
e 25 120
e 25 124
e 26 45
e 26 49
e 26 52
e 26 56
e 26 68
e 26 72
e 26 75
e 26 79
e 26 112
e 26 116
e 26 119
e 26 123
e 27 48
e 27 51
e 27 55
e 27 58
e 27 71
e 27 74
e 27 78
e 27 81
e 27 115
e 27 118
e 27 122
e 27 125
e 28 47
e 28 51
e 28 54
e 28 58
e 28 70
e 28 74
e 28 77
e 28 81
e 28 114
e 28 118
e 28 121
e 28 125
e 29 49
e 29 50
e 29 56
e 29 57
e 29 72
e 29 73
e 29 79
e 29 80
e 29 116
e 29 117
e 29 123
e 29 124
e 30 46
e 30 48
e 30 60
e 30 62
e 30 69
e 30 71
e 30 83
e 30 85
e 30 113
e 30 115
e 30 127
e 30 129
e 31 45
e 31 47
e 31 59
e 31 61
e 31 68
e 31 70
e 31 82
e 31 84
e 31 112
e 31 114
e 31 126
e 31 128
e 32 46
e 32 50
e 32 60
e 32 64
e 32 69
e 32 73
e 32 83
e 32 87
e 32 113
e 32 117
e 32 127
e 32 131
e 33 45
e 33 49
e 33 59
e 33 63
e 33 68
e 33 72
e 33 82
e 33 86
e 33 112
e 33 116
e 33 126
e 33 130
e 34 48
e 34 51
e 34 62
e 34 65
e 34 71
e 34 74
e 34 85
e 34 88
e 34 115
e 34 118
e 34 129
e 34 132
e 35 47
e 35 51
e 35 61
e 35 65
e 35 70
e 35 74
e 35 84
e 35 88
e 35 114
e 35 118
e 35 128
e 35 132
e 36 49
e 36 50
e 36 63
e 36 64
e 36 72
e 36 73
e 36 86
e 36 87
e 36 116
e 36 117
e 36 130
e 36 131
e 37 53
e 37 55
e 37 66
e 37 76
e 37 78
e 37 89
e 37 120
e 37 122
e 37 133
e 38 52
e 38 54
e 38 66
e 38 75
e 38 77
e 38 89
e 38 119
e 38 121
e 38 133
e 39 53
e 39 57
e 39 66
e 39 76
e 39 80
e 39 89
e 39 120
e 39 124
e 39 133
e 40 52
e 40 56
e 40 66
e 40 75
e 40 79
e 40 89
e 40 119
e 40 123
e 40 133
e 41 55
e 41 58
e 41 66
e 41 78
e 41 81
e 41 89
e 41 122
e 41 125
e 41 133
e 42 54
e 42 58
e 42 66
e 42 77
e 42 81
e 42 89
e 42 121
e 42 125
e 42 133
e 43 56
e 43 57
e 43 66
e 43 79
e 43 80
e 43 89
e 43 123
e 43 124
e 43 133
e 44 59
e 44 60
e 44 61
e 44 62
e 44 63
e 44 64
e 44 65
e 44 82
e 44 83
e 44 84
e 44 85
e 44 86
e 44 87
e 44 88
e 44 126
e 44 127
e 44 128
e 44 129
e 44 130
e 44 131
e 44 132
e 45 67
e 45 91
e 45 93
e 45 98
e 45 100
e 45 134
e 46 67
e 46 90
e 46 92
e 46 97
e 46 99
e 46 134
e 47 67
e 47 91
e 47 95
e 47 98
e 47 102
e 47 134
e 48 67
e 48 90
e 48 94
e 48 97
e 48 101
e 48 134
e 49 67
e 49 93
e 49 96
e 49 100
e 49 103
e 49 134
e 50 67
e 50 92
e 50 96
e 50 99
e 50 103
e 50 134
e 51 67
e 51 94
e 51 95
e 51 101
e 51 102
e 51 134
e 52 67
e 52 91
e 52 93
e 52 105
e 52 107
e 52 134
e 53 67
e 53 90
e 53 92
e 53 104
e 53 106
e 53 134
e 54 67
e 54 91
e 54 95
e 54 105
e 54 109
e 54 134
e 55 67
e 55 90
e 55 94
e 55 104
e 55 108
e 55 134
e 56 67
e 56 93
e 56 96
e 56 107
e 56 110
e 56 134
e 57 67
e 57 92
e 57 96
e 57 106
e 57 110
e 57 134
e 58 67
e 58 94
e 58 95
e 58 108
e 58 109
e 58 134
e 59 67
e 59 98
e 59 100
e 59 111
e 59 134
e 60 67
e 60 97
e 60 99
e 60 111
e 60 134
e 61 67
e 61 98
e 61 102
e 61 111
e 61 134
e 62 67
e 62 97
e 62 101
e 62 111
e 62 134
e 63 67
e 63 100
e 63 103
e 63 111
e 63 134
e 64 67
e 64 99
e 64 103
e 64 111
e 64 134
e 65 67
e 65 101
e 65 102
e 65 111
e 65 134
e 66 67
e 66 104
e 66 105
e 66 106
e 66 107
e 66 108
e 66 109
e 66 110
e 66 134
e 67 112
e 67 113
e 67 114
e 67 115
e 67 116
e 67 117
e 67 118
e 67 119
e 67 120
e 67 121
e 67 122
e 67 123
e 67 124
e 67 125
e 67 126
e 67 127
e 67 128
e 67 129
e 67 130
e 67 131
e 67 132
e 67 133
e 68 136
e 68 138
e 68 143
e 68 145
e 68 158
e 68 160
e 68 165
e 68 167
e 69 135
e 69 137
e 69 142
e 69 144
e 69 157
e 69 159
e 69 164
e 69 166
e 70 136
e 70 140
e 70 143
e 70 147
e 70 158
e 70 162
e 70 165
e 70 169
e 71 135
e 71 139
e 71 142
e 71 146
e 71 157
e 71 161
e 71 164
e 71 168
e 72 138
e 72 141
e 72 145
e 72 148
e 72 160
e 72 163
e 72 167
e 72 170
e 73 137
e 73 141
e 73 144
e 73 148
e 73 159
e 73 163
e 73 166
e 73 170
e 74 139
e 74 140
e 74 146
e 74 147
e 74 161
e 74 162
e 74 168
e 74 169
e 75 136
e 75 138
e 75 150
e 75 152
e 75 158
e 75 160
e 75 172
e 75 174
e 76 135
e 76 137
e 76 149
e 76 151
e 76 157
e 76 159
e 76 171
e 76 173
e 77 136
e 77 140
e 77 150
e 77 154
e 77 158
e 77 162
e 77 172
e 77 176
e 78 135
e 78 139
e 78 149
e 78 153
e 78 157
e 78 161
e 78 171
e 78 175
e 79 138
e 79 141
e 79 152
e 79 155
e 79 160
e 79 163
e 79 174
e 79 177
e 80 137
e 80 141
e 80 151
e 80 155
e 80 159
e 80 163
e 80 173
e 80 177
e 81 139
e 81 140
e 81 153
e 81 154
e 81 161
e 81 162
e 81 175
e 81 176
e 82 143
e 82 145
e 82 156
e 82 165
e 82 167
e 82 178
e 83 142
e 83 144
e 83 156
e 83 164
e 83 166
e 83 178
e 84 143
e 84 147
e 84 156
e 84 165
e 84 169
e 84 178
e 85 142
e 85 146
e 85 156
e 85 164
e 85 168
e 85 178
e 86 145
e 86 148
e 86 156
e 86 167
e 86 170
e 86 178
e 87 144
e 87 148
e 87 156
e 87 166
e 87 170
e 87 178
e 88 146
e 88 147
e 88 156
e 88 168
e 88 169
e 88 178
e 89 149
e 89 150
e 89 151
e 89 152
e 89 153
e 89 154
e 89 155
e 89 171
e 89 172
e 89 173
e 89 174
e 89 175
e 89 176
e 89 177
e 90 136
e 90 138
e 90 143
e 90 145
e 90 180
e 90 182
e 90 187
e 90 189
e 91 135
e 91 137
e 91 142
e 91 144
e 91 179
e 91 181
e 91 186
e 91 188
e 92 136
e 92 140
e 92 143
e 92 147
e 92 180
e 92 184
e 92 187
e 92 191
e 93 135
e 93 139
e 93 142
e 93 146
e 93 179
e 93 183
e 93 186
e 93 190
e 94 138
e 94 141
e 94 145
e 94 148
e 94 182
e 94 185
e 94 189
e 94 192
e 95 137
e 95 141
e 95 144
e 95 148
e 95 181
e 95 185
e 95 188
e 95 192
e 96 139
e 96 140
e 96 146
e 96 147
e 96 183
e 96 184
e 96 190
e 96 191
e 97 136
e 97 138
e 97 150
e 97 152
e 97 180
e 97 182
e 97 194
e 97 196
e 98 135
e 98 137
e 98 149
e 98 151
e 98 179
e 98 181
e 98 193
e 98 195
e 99 136
e 99 140
e 99 150
e 99 154
e 99 180
e 99 184
e 99 194
e 99 198
e 100 135
e 100 139
e 100 149
e 100 153
e 100 179
e 100 183
e 100 193
e 100 197
e 101 138
e 101 141
e 101 152
e 101 155
e 101 182
e 101 185
e 101 196
e 101 199
e 102 137
e 102 141
e 102 151
e 102 155
e 102 181
e 102 185
e 102 195
e 102 199
e 103 139
e 103 140
e 103 153
e 103 154
e 103 183
e 103 184
e 103 197
e 103 198
e 104 143
e 104 145
e 104 156
e 104 187
e 104 189
e 104 200
e 105 142
e 105 144
e 105 156
e 105 186
e 105 188
e 105 200
e 106 143
e 106 147
e 106 156
e 106 187
e 106 191
e 106 200
e 107 142
e 107 146
e 107 156
e 107 186
e 107 190
e 107 200
e 108 145
e 108 148
e 108 156
e 108 189
e 108 192
e 108 200
e 109 144
e 109 148
e 109 156
e 109 188
e 109 192
e 109 200
e 110 146
e 110 147
e 110 156
e 110 190
e 110 191
e 110 200
e 111 149
e 111 150
e 111 151
e 111 152
e 111 153
e 111 154
e 111 155
e 111 193
e 111 194
e 111 195
e 111 196
e 111 197
e 111 198
e 111 199
e 112 158
e 112 160
e 112 165
e 112 167
e 112 201
e 113 157
e 113 159
e 113 164
e 113 166
e 113 201
e 114 158
e 114 162
e 114 165
e 114 169
e 114 201
e 115 157
e 115 161
e 115 164
e 115 168
e 115 201
e 116 160
e 116 163
e 116 167
e 116 170
e 116 201
e 117 159
e 117 163
e 117 166
e 117 170
e 117 201
e 118 161
e 118 162
e 118 168
e 118 169
e 118 201
e 119 158
e 119 160
e 119 172
e 119 174
e 119 201
e 120 157
e 120 159
e 120 171
e 120 173
e 120 201
e 121 158
e 121 162
e 121 172
e 121 176
e 121 201
e 122 157
e 122 161
e 122 171
e 122 175
e 122 201
e 123 160
e 123 163
e 123 174
e 123 177
e 123 201
e 124 159
e 124 163
e 124 173
e 124 177
e 124 201
e 125 161
e 125 162
e 125 175
e 125 176
e 125 201
e 126 165
e 126 167
e 126 178
e 126 201
e 127 164
e 127 166
e 127 178
e 127 201
e 128 165
e 128 169
e 128 178
e 128 201
e 129 164
e 129 168
e 129 178
e 129 201
e 130 167
e 130 170
e 130 178
e 130 201
e 131 166
e 131 170
e 131 178
e 131 201
e 132 168
e 132 169
e 132 178
e 132 201
e 133 171
e 133 172
e 133 173
e 133 174
e 133 175
e 133 176
e 133 177
e 133 201
e 134 179
e 134 180
e 134 181
e 134 182
e 134 183
e 134 184
e 134 185
e 134 186
e 134 187
e 134 188
e 134 189
e 134 190
e 134 191
e 134 192
e 134 193
e 134 194
e 134 195
e 134 196
e 134 197
e 134 198
e 134 199
e 134 200
e 135 202
e 136 202
e 137 202
e 138 202
e 139 202
e 140 202
e 141 202
e 142 202
e 143 202
e 144 202
e 145 202
e 146 202
e 147 202
e 148 202
e 149 202
e 150 202
e 151 202
e 152 202
e 153 202
e 154 202
e 155 202
e 156 202
e 157 202
e 158 202
e 159 202
e 160 202
e 161 202
e 162 202
e 163 202
e 164 202
e 165 202
e 166 202
e 167 202
e 168 202
e 169 202
e 170 202
e 171 202
e 172 202
e 173 202
e 174 202
e 175 202
e 176 202
e 177 202
e 178 202
e 179 202
e 180 202
e 181 202
e 182 202
e 183 202
e 184 202
e 185 202
e 186 202
e 187 202
e 188 202
e 189 202
e 190 202
e 191 202
e 192 202
e 193 202
e 194 202
e 195 202
e 196 202
e 197 202
e 198 202
e 199 202
e 200 202
e 201 202
